p cnf 12 50 
-2 -3 -9 0
5 9 11 0
3 5 -12 0
5 4 3 0
6 4 10 0
-10 5 -9 0
-10 -1 -2 0
11 -7 -5 0
2 -8 -1 0
3 8 -5 0
1 9 -8 0
-10 12 5 0
1 -3 -8 0
-7 6 -2 0
11 1 -7 0
-12 10 3 0
-7 12 9 0
10 -9 -3 0
-3 2 -5 0
11 4 -10 0
11 -5 -12 0
8 9 11 0
11 2 -7 0
-5 -9 2 0
1 3 12 0
-9 2 5 0
10 -2 -9 0
7 12 9 0
12 -6 11 0
-4 -11 -7 0
-3 -5 -7 0
-1 7 12 0
12 7 -2 0
5 -4 -3 0
-11 7 9 0
2 11 -8 0
5 8 12 0
12 -7 -5 0
3 1 7 0
12 -2 6 0
-11 10 -3 0
-12 -11 1 0
-8 -2 -5 0
12 -9 3 0
6 -4 9 0
7 -1 -3 0
12 9 7 0
-2 3 7 0
3 -11 1 0
-3 1 10 0
